13924
1 0 0 0 0 1 0 1 1 0 0 1 0 0 1 0 0 1 0 0 1 0 0 0 1 0 0 0 0 0 
20 0 20 14 14 0 14 5 8 17 5 8 20 8 5 14 14 11 5 11 14 17 5 7 5 20 17 24 5 24 5 11 20 11 8 20 24 24 11 14 17 8 5 14 24 14 17 20 11 8 5 8 14 5 8 8 17 0 0 14 17 0 20 11 0 11 24 17 5 24 14 20 11 0 24 8 24 20 14 24 20 7 20 0 17 17 7 17 8 24 17 24 17 11 17 5 14 11 11 20 20 17 14 11 17 5 7 11 14 20 17 14 17 11 11 11 24 24 24 24 5 20 11 8 8 11 5 24 11 5 0 11 24 0 20 8 17 5 8 0 17 20 20 14 8 5 11 5 17 5 
